n = 33;
lu = [|-550, 284
      |-459, 305
      |82, 679
      |-836, -57
      |33, 1064
      |-693, 412
      |-1054, 403
      |-1043, 1016
      |-694, 939
      |-986, 445
      |307, 943
      |-994, -878
      |-128, 242
      |-767, -446
      |-417, 306
      |-788, 870
      |-749, 390
      |-431, 115
      |-774, -557
      |715, 939
      |233, 528
      |-944, 504
      |-6, 779
      |-905, 972
      |-620, 290
      |-689, 853
      |-789, 456
      |-279, 574
      |496, 722
      |-1058, -26
      |-192, -80
      |-1016, -381
      |-764, -702|];
